certificates/rado_a13_c2_N179.cnf
c Rad2 upper bound instance: x1 + 13*x2 - x3 = 2, interval [1,179]
p cnf 179 2340
1 12 0
-1 -12 0
1 2 25 0
-1 -2 -25 0
1 3 38 0
-1 -3 -38 0
1 4 51 0
-1 -4 -51 0
1 5 64 0
-1 -5 -64 0
1 6 77 0
-1 -6 -77 0
1 7 90 0
-1 -7 -90 0
1 8 103 0
-1 -8 -103 0
1 9 116 0
-1 -9 -116 0
1 10 129 0
-1 -10 -129 0
1 11 142 0
-1 -11 -142 0
1 12 155 0
-1 -12 -155 0
1 13 168 0
-1 -13 -168 0
1 2 13 0
-1 -2 -13 0
2 26 0
-2 -26 0
2 3 39 0
-2 -3 -39 0
2 4 52 0
-2 -4 -52 0
2 5 65 0
-2 -5 -65 0
2 6 78 0
-2 -6 -78 0
2 7 91 0
-2 -7 -91 0
2 8 104 0
-2 -8 -104 0
2 9 117 0
-2 -9 -117 0
2 10 130 0
-2 -10 -130 0
2 11 143 0
-2 -11 -143 0
2 12 156 0
-2 -12 -156 0
2 13 169 0
-2 -13 -169 0
1 3 14 0
-1 -3 -14 0
2 3 27 0
-2 -3 -27 0
3 40 0
-3 -40 0
3 4 53 0
-3 -4 -53 0
3 5 66 0
-3 -5 -66 0
3 6 79 0
-3 -6 -79 0
3 7 92 0
-3 -7 -92 0
3 8 105 0
-3 -8 -105 0
3 9 118 0
-3 -9 -118 0
3 10 131 0
-3 -10 -131 0
3 11 144 0
-3 -11 -144 0
3 12 157 0
-3 -12 -157 0
3 13 170 0
-3 -13 -170 0
1 4 15 0
-1 -4 -15 0
2 4 28 0
-2 -4 -28 0
3 4 41 0
-3 -4 -41 0
4 54 0
-4 -54 0
4 5 67 0
-4 -5 -67 0
4 6 80 0
-4 -6 -80 0
4 7 93 0
-4 -7 -93 0
4 8 106 0
-4 -8 -106 0
4 9 119 0
-4 -9 -119 0
4 10 132 0
-4 -10 -132 0
4 11 145 0
-4 -11 -145 0
4 12 158 0
-4 -12 -158 0
4 13 171 0
-4 -13 -171 0
1 5 16 0
-1 -5 -16 0
2 5 29 0
-2 -5 -29 0
3 5 42 0
-3 -5 -42 0
4 5 55 0
-4 -5 -55 0
5 68 0
-5 -68 0
5 6 81 0
-5 -6 -81 0
5 7 94 0
-5 -7 -94 0
5 8 107 0
-5 -8 -107 0
5 9 120 0
-5 -9 -120 0
5 10 133 0
-5 -10 -133 0
5 11 146 0
-5 -11 -146 0
5 12 159 0
-5 -12 -159 0
5 13 172 0
-5 -13 -172 0
1 6 17 0
-1 -6 -17 0
2 6 30 0
-2 -6 -30 0
3 6 43 0
-3 -6 -43 0
4 6 56 0
-4 -6 -56 0
5 6 69 0
-5 -6 -69 0
6 82 0
-6 -82 0
6 7 95 0
-6 -7 -95 0
6 8 108 0
-6 -8 -108 0
6 9 121 0
-6 -9 -121 0
6 10 134 0
-6 -10 -134 0
6 11 147 0
-6 -11 -147 0
6 12 160 0
-6 -12 -160 0
6 13 173 0
-6 -13 -173 0
1 7 18 0
-1 -7 -18 0
2 7 31 0
-2 -7 -31 0
3 7 44 0
-3 -7 -44 0
4 7 57 0
-4 -7 -57 0
5 7 70 0
-5 -7 -70 0
6 7 83 0
-6 -7 -83 0
7 96 0
-7 -96 0
7 8 109 0
-7 -8 -109 0
7 9 122 0
-7 -9 -122 0
7 10 135 0
-7 -10 -135 0
7 11 148 0
-7 -11 -148 0
7 12 161 0
-7 -12 -161 0
7 13 174 0
-7 -13 -174 0
1 8 19 0
-1 -8 -19 0
2 8 32 0
-2 -8 -32 0
3 8 45 0
-3 -8 -45 0
4 8 58 0
-4 -8 -58 0
5 8 71 0
-5 -8 -71 0
6 8 84 0
-6 -8 -84 0
7 8 97 0
-7 -8 -97 0
8 110 0
-8 -110 0
8 9 123 0
-8 -9 -123 0
8 10 136 0
-8 -10 -136 0
8 11 149 0
-8 -11 -149 0
8 12 162 0
-8 -12 -162 0
8 13 175 0
-8 -13 -175 0
1 9 20 0
-1 -9 -20 0
2 9 33 0
-2 -9 -33 0
3 9 46 0
-3 -9 -46 0
4 9 59 0
-4 -9 -59 0
5 9 72 0
-5 -9 -72 0
6 9 85 0
-6 -9 -85 0
7 9 98 0
-7 -9 -98 0
8 9 111 0
-8 -9 -111 0
9 124 0
-9 -124 0
9 10 137 0
-9 -10 -137 0
9 11 150 0
-9 -11 -150 0
9 12 163 0
-9 -12 -163 0
9 13 176 0
-9 -13 -176 0
1 10 21 0
-1 -10 -21 0
2 10 34 0
-2 -10 -34 0
3 10 47 0
-3 -10 -47 0
4 10 60 0
-4 -10 -60 0
5 10 73 0
-5 -10 -73 0
6 10 86 0
-6 -10 -86 0
7 10 99 0
-7 -10 -99 0
8 10 112 0
-8 -10 -112 0
9 10 125 0
-9 -10 -125 0
10 138 0
-10 -138 0
10 11 151 0
-10 -11 -151 0
10 12 164 0
-10 -12 -164 0
10 13 177 0
-10 -13 -177 0
1 11 22 0
-1 -11 -22 0
2 11 35 0
-2 -11 -35 0
3 11 48 0
-3 -11 -48 0
4 11 61 0
-4 -11 -61 0
5 11 74 0
-5 -11 -74 0
6 11 87 0
-6 -11 -87 0
7 11 100 0
-7 -11 -100 0
8 11 113 0
-8 -11 -113 0
9 11 126 0
-9 -11 -126 0
10 11 139 0
-10 -11 -139 0
11 152 0
-11 -152 0
11 12 165 0
-11 -12 -165 0
11 13 178 0
-11 -13 -178 0
1 12 23 0
-1 -12 -23 0
2 12 36 0
-2 -12 -36 0
3 12 49 0
-3 -12 -49 0
4 12 62 0
-4 -12 -62 0
5 12 75 0
-5 -12 -75 0
6 12 88 0
-6 -12 -88 0
7 12 101 0
-7 -12 -101 0
8 12 114 0
-8 -12 -114 0
9 12 127 0
-9 -12 -127 0
10 12 140 0
-10 -12 -140 0
11 12 153 0
-11 -12 -153 0
12 166 0
-12 -166 0
12 13 179 0
-12 -13 -179 0
1 13 24 0
-1 -13 -24 0
2 13 37 0
-2 -13 -37 0
3 13 50 0
-3 -13 -50 0
4 13 63 0
-4 -13 -63 0
5 13 76 0
-5 -13 -76 0
6 13 89 0
-6 -13 -89 0
7 13 102 0
-7 -13 -102 0
8 13 115 0
-8 -13 -115 0
9 13 128 0
-9 -13 -128 0
10 13 141 0
-10 -13 -141 0
11 13 154 0
-11 -13 -154 0
12 13 167 0
-12 -13 -167 0
1 14 25 0
-1 -14 -25 0
2 14 38 0
-2 -14 -38 0
3 14 51 0
-3 -14 -51 0
4 14 64 0
-4 -14 -64 0
5 14 77 0
-5 -14 -77 0
6 14 90 0
-6 -14 -90 0
7 14 103 0
-7 -14 -103 0
8 14 116 0
-8 -14 -116 0
9 14 129 0
-9 -14 -129 0
10 14 142 0
-10 -14 -142 0
11 14 155 0
-11 -14 -155 0
12 14 168 0
-12 -14 -168 0
1 15 26 0
-1 -15 -26 0
2 15 39 0
-2 -15 -39 0
3 15 52 0
-3 -15 -52 0
4 15 65 0
-4 -15 -65 0
5 15 78 0
-5 -15 -78 0
6 15 91 0
-6 -15 -91 0
7 15 104 0
-7 -15 -104 0
8 15 117 0
-8 -15 -117 0
9 15 130 0
-9 -15 -130 0
10 15 143 0
-10 -15 -143 0
11 15 156 0
-11 -15 -156 0
12 15 169 0
-12 -15 -169 0
1 16 27 0
-1 -16 -27 0
2 16 40 0
-2 -16 -40 0
3 16 53 0
-3 -16 -53 0
4 16 66 0
-4 -16 -66 0
5 16 79 0
-5 -16 -79 0
6 16 92 0
-6 -16 -92 0
7 16 105 0
-7 -16 -105 0
8 16 118 0
-8 -16 -118 0
9 16 131 0
-9 -16 -131 0
10 16 144 0
-10 -16 -144 0
11 16 157 0
-11 -16 -157 0
12 16 170 0
-12 -16 -170 0
1 17 28 0
-1 -17 -28 0
2 17 41 0
-2 -17 -41 0
3 17 54 0
-3 -17 -54 0
4 17 67 0
-4 -17 -67 0
5 17 80 0
-5 -17 -80 0
6 17 93 0
-6 -17 -93 0
7 17 106 0
-7 -17 -106 0
8 17 119 0
-8 -17 -119 0
9 17 132 0
-9 -17 -132 0
10 17 145 0
-10 -17 -145 0
11 17 158 0
-11 -17 -158 0
12 17 171 0
-12 -17 -171 0
1 18 29 0
-1 -18 -29 0
2 18 42 0
-2 -18 -42 0
3 18 55 0
-3 -18 -55 0
4 18 68 0
-4 -18 -68 0
5 18 81 0
-5 -18 -81 0
6 18 94 0
-6 -18 -94 0
7 18 107 0
-7 -18 -107 0
8 18 120 0
-8 -18 -120 0
9 18 133 0
-9 -18 -133 0
10 18 146 0
-10 -18 -146 0
11 18 159 0
-11 -18 -159 0
12 18 172 0
-12 -18 -172 0
1 19 30 0
-1 -19 -30 0
2 19 43 0
-2 -19 -43 0
3 19 56 0
-3 -19 -56 0
4 19 69 0
-4 -19 -69 0
5 19 82 0
-5 -19 -82 0
6 19 95 0
-6 -19 -95 0
7 19 108 0
-7 -19 -108 0
8 19 121 0
-8 -19 -121 0
9 19 134 0
-9 -19 -134 0
10 19 147 0
-10 -19 -147 0
11 19 160 0
-11 -19 -160 0
12 19 173 0
-12 -19 -173 0
1 20 31 0
-1 -20 -31 0
2 20 44 0
-2 -20 -44 0
3 20 57 0
-3 -20 -57 0
4 20 70 0
-4 -20 -70 0
5 20 83 0
-5 -20 -83 0
6 20 96 0
-6 -20 -96 0
7 20 109 0
-7 -20 -109 0
8 20 122 0
-8 -20 -122 0
9 20 135 0
-9 -20 -135 0
10 20 148 0
-10 -20 -148 0
11 20 161 0
-11 -20 -161 0
12 20 174 0
-12 -20 -174 0
1 21 32 0
-1 -21 -32 0
2 21 45 0
-2 -21 -45 0
3 21 58 0
-3 -21 -58 0
4 21 71 0
-4 -21 -71 0
5 21 84 0
-5 -21 -84 0
6 21 97 0
-6 -21 -97 0
7 21 110 0
-7 -21 -110 0
8 21 123 0
-8 -21 -123 0
9 21 136 0
-9 -21 -136 0
10 21 149 0
-10 -21 -149 0
11 21 162 0
-11 -21 -162 0
12 21 175 0
-12 -21 -175 0
1 22 33 0
-1 -22 -33 0
2 22 46 0
-2 -22 -46 0
3 22 59 0
-3 -22 -59 0
4 22 72 0
-4 -22 -72 0
5 22 85 0
-5 -22 -85 0
6 22 98 0
-6 -22 -98 0
7 22 111 0
-7 -22 -111 0
8 22 124 0
-8 -22 -124 0
9 22 137 0
-9 -22 -137 0
10 22 150 0
-10 -22 -150 0
11 22 163 0
-11 -22 -163 0
12 22 176 0
-12 -22 -176 0
1 23 34 0
-1 -23 -34 0
2 23 47 0
-2 -23 -47 0
3 23 60 0
-3 -23 -60 0
4 23 73 0
-4 -23 -73 0
5 23 86 0
-5 -23 -86 0
6 23 99 0
-6 -23 -99 0
7 23 112 0
-7 -23 -112 0
8 23 125 0
-8 -23 -125 0
9 23 138 0
-9 -23 -138 0
10 23 151 0
-10 -23 -151 0
11 23 164 0
-11 -23 -164 0
12 23 177 0
-12 -23 -177 0
1 24 35 0
-1 -24 -35 0
2 24 48 0
-2 -24 -48 0
3 24 61 0
-3 -24 -61 0
4 24 74 0
-4 -24 -74 0
5 24 87 0
-5 -24 -87 0
6 24 100 0
-6 -24 -100 0
7 24 113 0
-7 -24 -113 0
8 24 126 0
-8 -24 -126 0
9 24 139 0
-9 -24 -139 0
10 24 152 0
-10 -24 -152 0
11 24 165 0
-11 -24 -165 0
12 24 178 0
-12 -24 -178 0
1 25 36 0
-1 -25 -36 0
2 25 49 0
-2 -25 -49 0
3 25 62 0
-3 -25 -62 0
4 25 75 0
-4 -25 -75 0
5 25 88 0
-5 -25 -88 0
6 25 101 0
-6 -25 -101 0
7 25 114 0
-7 -25 -114 0
8 25 127 0
-8 -25 -127 0
9 25 140 0
-9 -25 -140 0
10 25 153 0
-10 -25 -153 0
11 25 166 0
-11 -25 -166 0
12 25 179 0
-12 -25 -179 0
1 26 37 0
-1 -26 -37 0
2 26 50 0
-2 -26 -50 0
3 26 63 0
-3 -26 -63 0
4 26 76 0
-4 -26 -76 0
5 26 89 0
-5 -26 -89 0
6 26 102 0
-6 -26 -102 0
7 26 115 0
-7 -26 -115 0
8 26 128 0
-8 -26 -128 0
9 26 141 0
-9 -26 -141 0
10 26 154 0
-10 -26 -154 0
11 26 167 0
-11 -26 -167 0
1 27 38 0
-1 -27 -38 0
2 27 51 0
-2 -27 -51 0
3 27 64 0
-3 -27 -64 0
4 27 77 0
-4 -27 -77 0
5 27 90 0
-5 -27 -90 0
6 27 103 0
-6 -27 -103 0
7 27 116 0
-7 -27 -116 0
8 27 129 0
-8 -27 -129 0
9 27 142 0
-9 -27 -142 0
10 27 155 0
-10 -27 -155 0
11 27 168 0
-11 -27 -168 0
1 28 39 0
-1 -28 -39 0
2 28 52 0
-2 -28 -52 0
3 28 65 0
-3 -28 -65 0
4 28 78 0
-4 -28 -78 0
5 28 91 0
-5 -28 -91 0
6 28 104 0
-6 -28 -104 0
7 28 117 0
-7 -28 -117 0
8 28 130 0
-8 -28 -130 0
9 28 143 0
-9 -28 -143 0
10 28 156 0
-10 -28 -156 0
11 28 169 0
-11 -28 -169 0
1 29 40 0
-1 -29 -40 0
2 29 53 0
-2 -29 -53 0
3 29 66 0
-3 -29 -66 0
4 29 79 0
-4 -29 -79 0
5 29 92 0
-5 -29 -92 0
6 29 105 0
-6 -29 -105 0
7 29 118 0
-7 -29 -118 0
8 29 131 0
-8 -29 -131 0
9 29 144 0
-9 -29 -144 0
10 29 157 0
-10 -29 -157 0
11 29 170 0
-11 -29 -170 0
1 30 41 0
-1 -30 -41 0
2 30 54 0
-2 -30 -54 0
3 30 67 0
-3 -30 -67 0
4 30 80 0
-4 -30 -80 0
5 30 93 0
-5 -30 -93 0
6 30 106 0
-6 -30 -106 0
7 30 119 0
-7 -30 -119 0
8 30 132 0
-8 -30 -132 0
9 30 145 0
-9 -30 -145 0
10 30 158 0
-10 -30 -158 0
11 30 171 0
-11 -30 -171 0
1 31 42 0
-1 -31 -42 0
2 31 55 0
-2 -31 -55 0
3 31 68 0
-3 -31 -68 0
4 31 81 0
-4 -31 -81 0
5 31 94 0
-5 -31 -94 0
6 31 107 0
-6 -31 -107 0
7 31 120 0
-7 -31 -120 0
8 31 133 0
-8 -31 -133 0
9 31 146 0
-9 -31 -146 0
10 31 159 0
-10 -31 -159 0
11 31 172 0
-11 -31 -172 0
1 32 43 0
-1 -32 -43 0
2 32 56 0
-2 -32 -56 0
3 32 69 0
-3 -32 -69 0
4 32 82 0
-4 -32 -82 0
5 32 95 0
-5 -32 -95 0
6 32 108 0
-6 -32 -108 0
7 32 121 0
-7 -32 -121 0
8 32 134 0
-8 -32 -134 0
9 32 147 0
-9 -32 -147 0
10 32 160 0
-10 -32 -160 0
11 32 173 0
-11 -32 -173 0
1 33 44 0
-1 -33 -44 0
2 33 57 0
-2 -33 -57 0
3 33 70 0
-3 -33 -70 0
4 33 83 0
-4 -33 -83 0
5 33 96 0
-5 -33 -96 0
6 33 109 0
-6 -33 -109 0
7 33 122 0
-7 -33 -122 0
8 33 135 0
-8 -33 -135 0
9 33 148 0
-9 -33 -148 0
10 33 161 0
-10 -33 -161 0
11 33 174 0
-11 -33 -174 0
1 34 45 0
-1 -34 -45 0
2 34 58 0
-2 -34 -58 0
3 34 71 0
-3 -34 -71 0
4 34 84 0
-4 -34 -84 0
5 34 97 0
-5 -34 -97 0
6 34 110 0
-6 -34 -110 0
7 34 123 0
-7 -34 -123 0
8 34 136 0
-8 -34 -136 0
9 34 149 0
-9 -34 -149 0
10 34 162 0
-10 -34 -162 0
11 34 175 0
-11 -34 -175 0
1 35 46 0
-1 -35 -46 0
2 35 59 0
-2 -35 -59 0
3 35 72 0
-3 -35 -72 0
4 35 85 0
-4 -35 -85 0
5 35 98 0
-5 -35 -98 0
6 35 111 0
-6 -35 -111 0
7 35 124 0
-7 -35 -124 0
8 35 137 0
-8 -35 -137 0
9 35 150 0
-9 -35 -150 0
10 35 163 0
-10 -35 -163 0
11 35 176 0
-11 -35 -176 0
1 36 47 0
-1 -36 -47 0
2 36 60 0
-2 -36 -60 0
3 36 73 0
-3 -36 -73 0
4 36 86 0
-4 -36 -86 0
5 36 99 0
-5 -36 -99 0
6 36 112 0
-6 -36 -112 0
7 36 125 0
-7 -36 -125 0
8 36 138 0
-8 -36 -138 0
9 36 151 0
-9 -36 -151 0
10 36 164 0
-10 -36 -164 0
11 36 177 0
-11 -36 -177 0
1 37 48 0
-1 -37 -48 0
2 37 61 0
-2 -37 -61 0
3 37 74 0
-3 -37 -74 0
4 37 87 0
-4 -37 -87 0
5 37 100 0
-5 -37 -100 0
6 37 113 0
-6 -37 -113 0
7 37 126 0
-7 -37 -126 0
8 37 139 0
-8 -37 -139 0
9 37 152 0
-9 -37 -152 0
10 37 165 0
-10 -37 -165 0
11 37 178 0
-11 -37 -178 0
1 38 49 0
-1 -38 -49 0
2 38 62 0
-2 -38 -62 0
3 38 75 0
-3 -38 -75 0
4 38 88 0
-4 -38 -88 0
5 38 101 0
-5 -38 -101 0
6 38 114 0
-6 -38 -114 0
7 38 127 0
-7 -38 -127 0
8 38 140 0
-8 -38 -140 0
9 38 153 0
-9 -38 -153 0
10 38 166 0
-10 -38 -166 0
11 38 179 0
-11 -38 -179 0
1 39 50 0
-1 -39 -50 0
2 39 63 0
-2 -39 -63 0
3 39 76 0
-3 -39 -76 0
4 39 89 0
-4 -39 -89 0
5 39 102 0
-5 -39 -102 0
6 39 115 0
-6 -39 -115 0
7 39 128 0
-7 -39 -128 0
8 39 141 0
-8 -39 -141 0
9 39 154 0
-9 -39 -154 0
10 39 167 0
-10 -39 -167 0
1 40 51 0
-1 -40 -51 0
2 40 64 0
-2 -40 -64 0
3 40 77 0
-3 -40 -77 0
4 40 90 0
-4 -40 -90 0
5 40 103 0
-5 -40 -103 0
6 40 116 0
-6 -40 -116 0
7 40 129 0
-7 -40 -129 0
8 40 142 0
-8 -40 -142 0
9 40 155 0
-9 -40 -155 0
10 40 168 0
-10 -40 -168 0
1 41 52 0
-1 -41 -52 0
2 41 65 0
-2 -41 -65 0
3 41 78 0
-3 -41 -78 0
4 41 91 0
-4 -41 -91 0
5 41 104 0
-5 -41 -104 0
6 41 117 0
-6 -41 -117 0
7 41 130 0
-7 -41 -130 0
8 41 143 0
-8 -41 -143 0
9 41 156 0
-9 -41 -156 0
10 41 169 0
-10 -41 -169 0
1 42 53 0
-1 -42 -53 0
2 42 66 0
-2 -42 -66 0
3 42 79 0
-3 -42 -79 0
4 42 92 0
-4 -42 -92 0
5 42 105 0
-5 -42 -105 0
6 42 118 0
-6 -42 -118 0
7 42 131 0
-7 -42 -131 0
8 42 144 0
-8 -42 -144 0
9 42 157 0
-9 -42 -157 0
10 42 170 0
-10 -42 -170 0
1 43 54 0
-1 -43 -54 0
2 43 67 0
-2 -43 -67 0
3 43 80 0
-3 -43 -80 0
4 43 93 0
-4 -43 -93 0
5 43 106 0
-5 -43 -106 0
6 43 119 0
-6 -43 -119 0
7 43 132 0
-7 -43 -132 0
8 43 145 0
-8 -43 -145 0
9 43 158 0
-9 -43 -158 0
10 43 171 0
-10 -43 -171 0
1 44 55 0
-1 -44 -55 0
2 44 68 0
-2 -44 -68 0
3 44 81 0
-3 -44 -81 0
4 44 94 0
-4 -44 -94 0
5 44 107 0
-5 -44 -107 0
6 44 120 0
-6 -44 -120 0
7 44 133 0
-7 -44 -133 0
8 44 146 0
-8 -44 -146 0
9 44 159 0
-9 -44 -159 0
10 44 172 0
-10 -44 -172 0
1 45 56 0
-1 -45 -56 0
2 45 69 0
-2 -45 -69 0
3 45 82 0
-3 -45 -82 0
4 45 95 0
-4 -45 -95 0
5 45 108 0
-5 -45 -108 0
6 45 121 0
-6 -45 -121 0
7 45 134 0
-7 -45 -134 0
8 45 147 0
-8 -45 -147 0
9 45 160 0
-9 -45 -160 0
10 45 173 0
-10 -45 -173 0
1 46 57 0
-1 -46 -57 0
2 46 70 0
-2 -46 -70 0
3 46 83 0
-3 -46 -83 0
4 46 96 0
-4 -46 -96 0
5 46 109 0
-5 -46 -109 0
6 46 122 0
-6 -46 -122 0
7 46 135 0
-7 -46 -135 0
8 46 148 0
-8 -46 -148 0
9 46 161 0
-9 -46 -161 0
10 46 174 0
-10 -46 -174 0
1 47 58 0
-1 -47 -58 0
2 47 71 0
-2 -47 -71 0
3 47 84 0
-3 -47 -84 0
4 47 97 0
-4 -47 -97 0
5 47 110 0
-5 -47 -110 0
6 47 123 0
-6 -47 -123 0
7 47 136 0
-7 -47 -136 0
8 47 149 0
-8 -47 -149 0
9 47 162 0
-9 -47 -162 0
10 47 175 0
-10 -47 -175 0
1 48 59 0
-1 -48 -59 0
2 48 72 0
-2 -48 -72 0
3 48 85 0
-3 -48 -85 0
4 48 98 0
-4 -48 -98 0
5 48 111 0
-5 -48 -111 0
6 48 124 0
-6 -48 -124 0
7 48 137 0
-7 -48 -137 0
8 48 150 0
-8 -48 -150 0
9 48 163 0
-9 -48 -163 0
10 48 176 0
-10 -48 -176 0
1 49 60 0
-1 -49 -60 0
2 49 73 0
-2 -49 -73 0
3 49 86 0
-3 -49 -86 0
4 49 99 0
-4 -49 -99 0
5 49 112 0
-5 -49 -112 0
6 49 125 0
-6 -49 -125 0
7 49 138 0
-7 -49 -138 0
8 49 151 0
-8 -49 -151 0
9 49 164 0
-9 -49 -164 0
10 49 177 0
-10 -49 -177 0
1 50 61 0
-1 -50 -61 0
2 50 74 0
-2 -50 -74 0
3 50 87 0
-3 -50 -87 0
4 50 100 0
-4 -50 -100 0
5 50 113 0
-5 -50 -113 0
6 50 126 0
-6 -50 -126 0
7 50 139 0
-7 -50 -139 0
8 50 152 0
-8 -50 -152 0
9 50 165 0
-9 -50 -165 0
10 50 178 0
-10 -50 -178 0
1 51 62 0
-1 -51 -62 0
2 51 75 0
-2 -51 -75 0
3 51 88 0
-3 -51 -88 0
4 51 101 0
-4 -51 -101 0
5 51 114 0
-5 -51 -114 0
6 51 127 0
-6 -51 -127 0
7 51 140 0
-7 -51 -140 0
8 51 153 0
-8 -51 -153 0
9 51 166 0
-9 -51 -166 0
10 51 179 0
-10 -51 -179 0
1 52 63 0
-1 -52 -63 0
2 52 76 0
-2 -52 -76 0
3 52 89 0
-3 -52 -89 0
4 52 102 0
-4 -52 -102 0
5 52 115 0
-5 -52 -115 0
6 52 128 0
-6 -52 -128 0
7 52 141 0
-7 -52 -141 0
8 52 154 0
-8 -52 -154 0
9 52 167 0
-9 -52 -167 0
1 53 64 0
-1 -53 -64 0
2 53 77 0
-2 -53 -77 0
3 53 90 0
-3 -53 -90 0
4 53 103 0
-4 -53 -103 0
5 53 116 0
-5 -53 -116 0
6 53 129 0
-6 -53 -129 0
7 53 142 0
-7 -53 -142 0
8 53 155 0
-8 -53 -155 0
9 53 168 0
-9 -53 -168 0
1 54 65 0
-1 -54 -65 0
2 54 78 0
-2 -54 -78 0
3 54 91 0
-3 -54 -91 0
4 54 104 0
-4 -54 -104 0
5 54 117 0
-5 -54 -117 0
6 54 130 0
-6 -54 -130 0
7 54 143 0
-7 -54 -143 0
8 54 156 0
-8 -54 -156 0
9 54 169 0
-9 -54 -169 0
1 55 66 0
-1 -55 -66 0
2 55 79 0
-2 -55 -79 0
3 55 92 0
-3 -55 -92 0
4 55 105 0
-4 -55 -105 0
5 55 118 0
-5 -55 -118 0
6 55 131 0
-6 -55 -131 0
7 55 144 0
-7 -55 -144 0
8 55 157 0
-8 -55 -157 0
9 55 170 0
-9 -55 -170 0
1 56 67 0
-1 -56 -67 0
2 56 80 0
-2 -56 -80 0
3 56 93 0
-3 -56 -93 0
4 56 106 0
-4 -56 -106 0
5 56 119 0
-5 -56 -119 0
6 56 132 0
-6 -56 -132 0
7 56 145 0
-7 -56 -145 0
8 56 158 0
-8 -56 -158 0
9 56 171 0
-9 -56 -171 0
1 57 68 0
-1 -57 -68 0
2 57 81 0
-2 -57 -81 0
3 57 94 0
-3 -57 -94 0
4 57 107 0
-4 -57 -107 0
5 57 120 0
-5 -57 -120 0
6 57 133 0
-6 -57 -133 0
7 57 146 0
-7 -57 -146 0
8 57 159 0
-8 -57 -159 0
9 57 172 0
-9 -57 -172 0
1 58 69 0
-1 -58 -69 0
2 58 82 0
-2 -58 -82 0
3 58 95 0
-3 -58 -95 0
4 58 108 0
-4 -58 -108 0
5 58 121 0
-5 -58 -121 0
6 58 134 0
-6 -58 -134 0
7 58 147 0
-7 -58 -147 0
8 58 160 0
-8 -58 -160 0
9 58 173 0
-9 -58 -173 0
1 59 70 0
-1 -59 -70 0
2 59 83 0
-2 -59 -83 0
3 59 96 0
-3 -59 -96 0
4 59 109 0
-4 -59 -109 0
5 59 122 0
-5 -59 -122 0
6 59 135 0
-6 -59 -135 0
7 59 148 0
-7 -59 -148 0
8 59 161 0
-8 -59 -161 0
9 59 174 0
-9 -59 -174 0
1 60 71 0
-1 -60 -71 0
2 60 84 0
-2 -60 -84 0
3 60 97 0
-3 -60 -97 0
4 60 110 0
-4 -60 -110 0
5 60 123 0
-5 -60 -123 0
6 60 136 0
-6 -60 -136 0
7 60 149 0
-7 -60 -149 0
8 60 162 0
-8 -60 -162 0
9 60 175 0
-9 -60 -175 0
1 61 72 0
-1 -61 -72 0
2 61 85 0
-2 -61 -85 0
3 61 98 0
-3 -61 -98 0
4 61 111 0
-4 -61 -111 0
5 61 124 0
-5 -61 -124 0
6 61 137 0
-6 -61 -137 0
7 61 150 0
-7 -61 -150 0
8 61 163 0
-8 -61 -163 0
9 61 176 0
-9 -61 -176 0
1 62 73 0
-1 -62 -73 0
2 62 86 0
-2 -62 -86 0
3 62 99 0
-3 -62 -99 0
4 62 112 0
-4 -62 -112 0
5 62 125 0
-5 -62 -125 0
6 62 138 0
-6 -62 -138 0
7 62 151 0
-7 -62 -151 0
8 62 164 0
-8 -62 -164 0
9 62 177 0
-9 -62 -177 0
1 63 74 0
-1 -63 -74 0
2 63 87 0
-2 -63 -87 0
3 63 100 0
-3 -63 -100 0
4 63 113 0
-4 -63 -113 0
5 63 126 0
-5 -63 -126 0
6 63 139 0
-6 -63 -139 0
7 63 152 0
-7 -63 -152 0
8 63 165 0
-8 -63 -165 0
9 63 178 0
-9 -63 -178 0
1 64 75 0
-1 -64 -75 0
2 64 88 0
-2 -64 -88 0
3 64 101 0
-3 -64 -101 0
4 64 114 0
-4 -64 -114 0
5 64 127 0
-5 -64 -127 0
6 64 140 0
-6 -64 -140 0
7 64 153 0
-7 -64 -153 0
8 64 166 0
-8 -64 -166 0
9 64 179 0
-9 -64 -179 0
1 65 76 0
-1 -65 -76 0
2 65 89 0
-2 -65 -89 0
3 65 102 0
-3 -65 -102 0
4 65 115 0
-4 -65 -115 0
5 65 128 0
-5 -65 -128 0
6 65 141 0
-6 -65 -141 0
7 65 154 0
-7 -65 -154 0
8 65 167 0
-8 -65 -167 0
1 66 77 0
-1 -66 -77 0
2 66 90 0
-2 -66 -90 0
3 66 103 0
-3 -66 -103 0
4 66 116 0
-4 -66 -116 0
5 66 129 0
-5 -66 -129 0
6 66 142 0
-6 -66 -142 0
7 66 155 0
-7 -66 -155 0
8 66 168 0
-8 -66 -168 0
1 67 78 0
-1 -67 -78 0
2 67 91 0
-2 -67 -91 0
3 67 104 0
-3 -67 -104 0
4 67 117 0
-4 -67 -117 0
5 67 130 0
-5 -67 -130 0
6 67 143 0
-6 -67 -143 0
7 67 156 0
-7 -67 -156 0
8 67 169 0
-8 -67 -169 0
1 68 79 0
-1 -68 -79 0
2 68 92 0
-2 -68 -92 0
3 68 105 0
-3 -68 -105 0
4 68 118 0
-4 -68 -118 0
5 68 131 0
-5 -68 -131 0
6 68 144 0
-6 -68 -144 0
7 68 157 0
-7 -68 -157 0
8 68 170 0
-8 -68 -170 0
1 69 80 0
-1 -69 -80 0
2 69 93 0
-2 -69 -93 0
3 69 106 0
-3 -69 -106 0
4 69 119 0
-4 -69 -119 0
5 69 132 0
-5 -69 -132 0
6 69 145 0
-6 -69 -145 0
7 69 158 0
-7 -69 -158 0
8 69 171 0
-8 -69 -171 0
1 70 81 0
-1 -70 -81 0
2 70 94 0
-2 -70 -94 0
3 70 107 0
-3 -70 -107 0
4 70 120 0
-4 -70 -120 0
5 70 133 0
-5 -70 -133 0
6 70 146 0
-6 -70 -146 0
7 70 159 0
-7 -70 -159 0
8 70 172 0
-8 -70 -172 0
1 71 82 0
-1 -71 -82 0
2 71 95 0
-2 -71 -95 0
3 71 108 0
-3 -71 -108 0
4 71 121 0
-4 -71 -121 0
5 71 134 0
-5 -71 -134 0
6 71 147 0
-6 -71 -147 0
7 71 160 0
-7 -71 -160 0
8 71 173 0
-8 -71 -173 0
1 72 83 0
-1 -72 -83 0
2 72 96 0
-2 -72 -96 0
3 72 109 0
-3 -72 -109 0
4 72 122 0
-4 -72 -122 0
5 72 135 0
-5 -72 -135 0
6 72 148 0
-6 -72 -148 0
7 72 161 0
-7 -72 -161 0
8 72 174 0
-8 -72 -174 0
1 73 84 0
-1 -73 -84 0
2 73 97 0
-2 -73 -97 0
3 73 110 0
-3 -73 -110 0
4 73 123 0
-4 -73 -123 0
5 73 136 0
-5 -73 -136 0
6 73 149 0
-6 -73 -149 0
7 73 162 0
-7 -73 -162 0
8 73 175 0
-8 -73 -175 0
1 74 85 0
-1 -74 -85 0
2 74 98 0
-2 -74 -98 0
3 74 111 0
-3 -74 -111 0
4 74 124 0
-4 -74 -124 0
5 74 137 0
-5 -74 -137 0
6 74 150 0
-6 -74 -150 0
7 74 163 0
-7 -74 -163 0
8 74 176 0
-8 -74 -176 0
1 75 86 0
-1 -75 -86 0
2 75 99 0
-2 -75 -99 0
3 75 112 0
-3 -75 -112 0
4 75 125 0
-4 -75 -125 0
5 75 138 0
-5 -75 -138 0
6 75 151 0
-6 -75 -151 0
7 75 164 0
-7 -75 -164 0
8 75 177 0
-8 -75 -177 0
1 76 87 0
-1 -76 -87 0
2 76 100 0
-2 -76 -100 0
3 76 113 0
-3 -76 -113 0
4 76 126 0
-4 -76 -126 0
5 76 139 0
-5 -76 -139 0
6 76 152 0
-6 -76 -152 0
7 76 165 0
-7 -76 -165 0
8 76 178 0
-8 -76 -178 0
1 77 88 0
-1 -77 -88 0
2 77 101 0
-2 -77 -101 0
3 77 114 0
-3 -77 -114 0
4 77 127 0
-4 -77 -127 0
5 77 140 0
-5 -77 -140 0
6 77 153 0
-6 -77 -153 0
7 77 166 0
-7 -77 -166 0
8 77 179 0
-8 -77 -179 0
1 78 89 0
-1 -78 -89 0
2 78 102 0
-2 -78 -102 0
3 78 115 0
-3 -78 -115 0
4 78 128 0
-4 -78 -128 0
5 78 141 0
-5 -78 -141 0
6 78 154 0
-6 -78 -154 0
7 78 167 0
-7 -78 -167 0
1 79 90 0
-1 -79 -90 0
2 79 103 0
-2 -79 -103 0
3 79 116 0
-3 -79 -116 0
4 79 129 0
-4 -79 -129 0
5 79 142 0
-5 -79 -142 0
6 79 155 0
-6 -79 -155 0
7 79 168 0
-7 -79 -168 0
1 80 91 0
-1 -80 -91 0
2 80 104 0
-2 -80 -104 0
3 80 117 0
-3 -80 -117 0
4 80 130 0
-4 -80 -130 0
5 80 143 0
-5 -80 -143 0
6 80 156 0
-6 -80 -156 0
7 80 169 0
-7 -80 -169 0
1 81 92 0
-1 -81 -92 0
2 81 105 0
-2 -81 -105 0
3 81 118 0
-3 -81 -118 0
4 81 131 0
-4 -81 -131 0
5 81 144 0
-5 -81 -144 0
6 81 157 0
-6 -81 -157 0
7 81 170 0
-7 -81 -170 0
1 82 93 0
-1 -82 -93 0
2 82 106 0
-2 -82 -106 0
3 82 119 0
-3 -82 -119 0
4 82 132 0
-4 -82 -132 0
5 82 145 0
-5 -82 -145 0
6 82 158 0
-6 -82 -158 0
7 82 171 0
-7 -82 -171 0
1 83 94 0
-1 -83 -94 0
2 83 107 0
-2 -83 -107 0
3 83 120 0
-3 -83 -120 0
4 83 133 0
-4 -83 -133 0
5 83 146 0
-5 -83 -146 0
6 83 159 0
-6 -83 -159 0
7 83 172 0
-7 -83 -172 0
1 84 95 0
-1 -84 -95 0
2 84 108 0
-2 -84 -108 0
3 84 121 0
-3 -84 -121 0
4 84 134 0
-4 -84 -134 0
5 84 147 0
-5 -84 -147 0
6 84 160 0
-6 -84 -160 0
7 84 173 0
-7 -84 -173 0
1 85 96 0
-1 -85 -96 0
2 85 109 0
-2 -85 -109 0
3 85 122 0
-3 -85 -122 0
4 85 135 0
-4 -85 -135 0
5 85 148 0
-5 -85 -148 0
6 85 161 0
-6 -85 -161 0
7 85 174 0
-7 -85 -174 0
1 86 97 0
-1 -86 -97 0
2 86 110 0
-2 -86 -110 0
3 86 123 0
-3 -86 -123 0
4 86 136 0
-4 -86 -136 0
5 86 149 0
-5 -86 -149 0
6 86 162 0
-6 -86 -162 0
7 86 175 0
-7 -86 -175 0
1 87 98 0
-1 -87 -98 0
2 87 111 0
-2 -87 -111 0
3 87 124 0
-3 -87 -124 0
4 87 137 0
-4 -87 -137 0
5 87 150 0
-5 -87 -150 0
6 87 163 0
-6 -87 -163 0
7 87 176 0
-7 -87 -176 0
1 88 99 0
-1 -88 -99 0
2 88 112 0
-2 -88 -112 0
3 88 125 0
-3 -88 -125 0
4 88 138 0
-4 -88 -138 0
5 88 151 0
-5 -88 -151 0
6 88 164 0
-6 -88 -164 0
7 88 177 0
-7 -88 -177 0
1 89 100 0
-1 -89 -100 0
2 89 113 0
-2 -89 -113 0
3 89 126 0
-3 -89 -126 0
4 89 139 0
-4 -89 -139 0
5 89 152 0
-5 -89 -152 0
6 89 165 0
-6 -89 -165 0
7 89 178 0
-7 -89 -178 0
1 90 101 0
-1 -90 -101 0
2 90 114 0
-2 -90 -114 0
3 90 127 0
-3 -90 -127 0
4 90 140 0
-4 -90 -140 0
5 90 153 0
-5 -90 -153 0
6 90 166 0
-6 -90 -166 0
7 90 179 0
-7 -90 -179 0
1 91 102 0
-1 -91 -102 0
2 91 115 0
-2 -91 -115 0
3 91 128 0
-3 -91 -128 0
4 91 141 0
-4 -91 -141 0
5 91 154 0
-5 -91 -154 0
6 91 167 0
-6 -91 -167 0
1 92 103 0
-1 -92 -103 0
2 92 116 0
-2 -92 -116 0
3 92 129 0
-3 -92 -129 0
4 92 142 0
-4 -92 -142 0
5 92 155 0
-5 -92 -155 0
6 92 168 0
-6 -92 -168 0
1 93 104 0
-1 -93 -104 0
2 93 117 0
-2 -93 -117 0
3 93 130 0
-3 -93 -130 0
4 93 143 0
-4 -93 -143 0
5 93 156 0
-5 -93 -156 0
6 93 169 0
-6 -93 -169 0
1 94 105 0
-1 -94 -105 0
2 94 118 0
-2 -94 -118 0
3 94 131 0
-3 -94 -131 0
4 94 144 0
-4 -94 -144 0
5 94 157 0
-5 -94 -157 0
6 94 170 0
-6 -94 -170 0
1 95 106 0
-1 -95 -106 0
2 95 119 0
-2 -95 -119 0
3 95 132 0
-3 -95 -132 0
4 95 145 0
-4 -95 -145 0
5 95 158 0
-5 -95 -158 0
6 95 171 0
-6 -95 -171 0
1 96 107 0
-1 -96 -107 0
2 96 120 0
-2 -96 -120 0
3 96 133 0
-3 -96 -133 0
4 96 146 0
-4 -96 -146 0
5 96 159 0
-5 -96 -159 0
6 96 172 0
-6 -96 -172 0
1 97 108 0
-1 -97 -108 0
2 97 121 0
-2 -97 -121 0
3 97 134 0
-3 -97 -134 0
4 97 147 0
-4 -97 -147 0
5 97 160 0
-5 -97 -160 0
6 97 173 0
-6 -97 -173 0
1 98 109 0
-1 -98 -109 0
2 98 122 0
-2 -98 -122 0
3 98 135 0
-3 -98 -135 0
4 98 148 0
-4 -98 -148 0
5 98 161 0
-5 -98 -161 0
6 98 174 0
-6 -98 -174 0
1 99 110 0
-1 -99 -110 0
2 99 123 0
-2 -99 -123 0
3 99 136 0
-3 -99 -136 0
4 99 149 0
-4 -99 -149 0
5 99 162 0
-5 -99 -162 0
6 99 175 0
-6 -99 -175 0
1 100 111 0
-1 -100 -111 0
2 100 124 0
-2 -100 -124 0
3 100 137 0
-3 -100 -137 0
4 100 150 0
-4 -100 -150 0
5 100 163 0
-5 -100 -163 0
6 100 176 0
-6 -100 -176 0
1 101 112 0
-1 -101 -112 0
2 101 125 0
-2 -101 -125 0
3 101 138 0
-3 -101 -138 0
4 101 151 0
-4 -101 -151 0
5 101 164 0
-5 -101 -164 0
6 101 177 0
-6 -101 -177 0
1 102 113 0
-1 -102 -113 0
2 102 126 0
-2 -102 -126 0
3 102 139 0
-3 -102 -139 0
4 102 152 0
-4 -102 -152 0
5 102 165 0
-5 -102 -165 0
6 102 178 0
-6 -102 -178 0
1 103 114 0
-1 -103 -114 0
2 103 127 0
-2 -103 -127 0
3 103 140 0
-3 -103 -140 0
4 103 153 0
-4 -103 -153 0
5 103 166 0
-5 -103 -166 0
6 103 179 0
-6 -103 -179 0
1 104 115 0
-1 -104 -115 0
2 104 128 0
-2 -104 -128 0
3 104 141 0
-3 -104 -141 0
4 104 154 0
-4 -104 -154 0
5 104 167 0
-5 -104 -167 0
1 105 116 0
-1 -105 -116 0
2 105 129 0
-2 -105 -129 0
3 105 142 0
-3 -105 -142 0
4 105 155 0
-4 -105 -155 0
5 105 168 0
-5 -105 -168 0
1 106 117 0
-1 -106 -117 0
2 106 130 0
-2 -106 -130 0
3 106 143 0
-3 -106 -143 0
4 106 156 0
-4 -106 -156 0
5 106 169 0
-5 -106 -169 0
1 107 118 0
-1 -107 -118 0
2 107 131 0
-2 -107 -131 0
3 107 144 0
-3 -107 -144 0
4 107 157 0
-4 -107 -157 0
5 107 170 0
-5 -107 -170 0
1 108 119 0
-1 -108 -119 0
2 108 132 0
-2 -108 -132 0
3 108 145 0
-3 -108 -145 0
4 108 158 0
-4 -108 -158 0
5 108 171 0
-5 -108 -171 0
1 109 120 0
-1 -109 -120 0
2 109 133 0
-2 -109 -133 0
3 109 146 0
-3 -109 -146 0
4 109 159 0
-4 -109 -159 0
5 109 172 0
-5 -109 -172 0
1 110 121 0
-1 -110 -121 0
2 110 134 0
-2 -110 -134 0
3 110 147 0
-3 -110 -147 0
4 110 160 0
-4 -110 -160 0
5 110 173 0
-5 -110 -173 0
1 111 122 0
-1 -111 -122 0
2 111 135 0
-2 -111 -135 0
3 111 148 0
-3 -111 -148 0
4 111 161 0
-4 -111 -161 0
5 111 174 0
-5 -111 -174 0
1 112 123 0
-1 -112 -123 0
2 112 136 0
-2 -112 -136 0
3 112 149 0
-3 -112 -149 0
4 112 162 0
-4 -112 -162 0
5 112 175 0
-5 -112 -175 0
1 113 124 0
-1 -113 -124 0
2 113 137 0
-2 -113 -137 0
3 113 150 0
-3 -113 -150 0
4 113 163 0
-4 -113 -163 0
5 113 176 0
-5 -113 -176 0
1 114 125 0
-1 -114 -125 0
2 114 138 0
-2 -114 -138 0
3 114 151 0
-3 -114 -151 0
4 114 164 0
-4 -114 -164 0
5 114 177 0
-5 -114 -177 0
1 115 126 0
-1 -115 -126 0
2 115 139 0
-2 -115 -139 0
3 115 152 0
-3 -115 -152 0
4 115 165 0
-4 -115 -165 0
5 115 178 0
-5 -115 -178 0
1 116 127 0
-1 -116 -127 0
2 116 140 0
-2 -116 -140 0
3 116 153 0
-3 -116 -153 0
4 116 166 0
-4 -116 -166 0
5 116 179 0
-5 -116 -179 0
1 117 128 0
-1 -117 -128 0
2 117 141 0
-2 -117 -141 0
3 117 154 0
-3 -117 -154 0
4 117 167 0
-4 -117 -167 0
1 118 129 0
-1 -118 -129 0
2 118 142 0
-2 -118 -142 0
3 118 155 0
-3 -118 -155 0
4 118 168 0
-4 -118 -168 0
1 119 130 0
-1 -119 -130 0
2 119 143 0
-2 -119 -143 0
3 119 156 0
-3 -119 -156 0
4 119 169 0
-4 -119 -169 0
1 120 131 0
-1 -120 -131 0
2 120 144 0
-2 -120 -144 0
3 120 157 0
-3 -120 -157 0
4 120 170 0
-4 -120 -170 0
1 121 132 0
-1 -121 -132 0
2 121 145 0
-2 -121 -145 0
3 121 158 0
-3 -121 -158 0
4 121 171 0
-4 -121 -171 0
1 122 133 0
-1 -122 -133 0
2 122 146 0
-2 -122 -146 0
3 122 159 0
-3 -122 -159 0
4 122 172 0
-4 -122 -172 0
1 123 134 0
-1 -123 -134 0
2 123 147 0
-2 -123 -147 0
3 123 160 0
-3 -123 -160 0
4 123 173 0
-4 -123 -173 0
1 124 135 0
-1 -124 -135 0
2 124 148 0
-2 -124 -148 0
3 124 161 0
-3 -124 -161 0
4 124 174 0
-4 -124 -174 0
1 125 136 0
-1 -125 -136 0
2 125 149 0
-2 -125 -149 0
3 125 162 0
-3 -125 -162 0
4 125 175 0
-4 -125 -175 0
1 126 137 0
-1 -126 -137 0
2 126 150 0
-2 -126 -150 0
3 126 163 0
-3 -126 -163 0
4 126 176 0
-4 -126 -176 0
1 127 138 0
-1 -127 -138 0
2 127 151 0
-2 -127 -151 0
3 127 164 0
-3 -127 -164 0
4 127 177 0
-4 -127 -177 0
1 128 139 0
-1 -128 -139 0
2 128 152 0
-2 -128 -152 0
3 128 165 0
-3 -128 -165 0
4 128 178 0
-4 -128 -178 0
1 129 140 0
-1 -129 -140 0
2 129 153 0
-2 -129 -153 0
3 129 166 0
-3 -129 -166 0
4 129 179 0
-4 -129 -179 0
1 130 141 0
-1 -130 -141 0
2 130 154 0
-2 -130 -154 0
3 130 167 0
-3 -130 -167 0
1 131 142 0
-1 -131 -142 0
2 131 155 0
-2 -131 -155 0
3 131 168 0
-3 -131 -168 0
1 132 143 0
-1 -132 -143 0
2 132 156 0
-2 -132 -156 0
3 132 169 0
-3 -132 -169 0
1 133 144 0
-1 -133 -144 0
2 133 157 0
-2 -133 -157 0
3 133 170 0
-3 -133 -170 0
1 134 145 0
-1 -134 -145 0
2 134 158 0
-2 -134 -158 0
3 134 171 0
-3 -134 -171 0
1 135 146 0
-1 -135 -146 0
2 135 159 0
-2 -135 -159 0
3 135 172 0
-3 -135 -172 0
1 136 147 0
-1 -136 -147 0
2 136 160 0
-2 -136 -160 0
3 136 173 0
-3 -136 -173 0
1 137 148 0
-1 -137 -148 0
2 137 161 0
-2 -137 -161 0
3 137 174 0
-3 -137 -174 0
1 138 149 0
-1 -138 -149 0
2 138 162 0
-2 -138 -162 0
3 138 175 0
-3 -138 -175 0
1 139 150 0
-1 -139 -150 0
2 139 163 0
-2 -139 -163 0
3 139 176 0
-3 -139 -176 0
1 140 151 0
-1 -140 -151 0
2 140 164 0
-2 -140 -164 0
3 140 177 0
-3 -140 -177 0
1 141 152 0
-1 -141 -152 0
2 141 165 0
-2 -141 -165 0
3 141 178 0
-3 -141 -178 0
1 142 153 0
-1 -142 -153 0
2 142 166 0
-2 -142 -166 0
3 142 179 0
-3 -142 -179 0
1 143 154 0
-1 -143 -154 0
2 143 167 0
-2 -143 -167 0
1 144 155 0
-1 -144 -155 0
2 144 168 0
-2 -144 -168 0
1 145 156 0
-1 -145 -156 0
2 145 169 0
-2 -145 -169 0
1 146 157 0
-1 -146 -157 0
2 146 170 0
-2 -146 -170 0
1 147 158 0
-1 -147 -158 0
2 147 171 0
-2 -147 -171 0
1 148 159 0
-1 -148 -159 0
2 148 172 0
-2 -148 -172 0
1 149 160 0
-1 -149 -160 0
2 149 173 0
-2 -149 -173 0
1 150 161 0
-1 -150 -161 0
2 150 174 0
-2 -150 -174 0
1 151 162 0
-1 -151 -162 0
2 151 175 0
-2 -151 -175 0
1 152 163 0
-1 -152 -163 0
2 152 176 0
-2 -152 -176 0
1 153 164 0
-1 -153 -164 0
2 153 177 0
-2 -153 -177 0
1 154 165 0
-1 -154 -165 0
2 154 178 0
-2 -154 -178 0
1 155 166 0
-1 -155 -166 0
2 155 179 0
-2 -155 -179 0
1 156 167 0
-1 -156 -167 0
1 157 168 0
-1 -157 -168 0
1 158 169 0
-1 -158 -169 0
1 159 170 0
-1 -159 -170 0
1 160 171 0
-1 -160 -171 0
1 161 172 0
-1 -161 -172 0
1 162 173 0
-1 -162 -173 0
1 163 174 0
-1 -163 -174 0
1 164 175 0
-1 -164 -175 0
1 165 176 0
-1 -165 -176 0
1 166 177 0
-1 -166 -177 0
1 167 178 0
-1 -167 -178 0
1 168 179 0
-1 -168 -179 0
