certificates/rado_a13_c2_N179.drat
1 -178 -179 0
-178 -179 0
d 1 -178 -179 0
12 168 178 0
168 -179 0
-168 -179 0
d -168 -1 -179 0
-179 0
-12 -168 0
-168 0
1 0
-12 0
166 0
14 0
178 0
13 0
25 0
-177 0
-155 0
0
